(set-info :source |printed by MathSAT|)

1 (97,96,95,94,93,92,91) @37:
(assert true)

97 () @474:
(assert true)

96 () @475:
(assert true)

95 () @476:
(assert true)

94 () @477:
(assert true)

93 () @476:
(assert true)

92 () @477:
(assert true)

91 () @480:
(assert true)

